Nodes = {"N1", "N2", "N3", "N4", "N5", "N6", "N7", "N8", "N9", "N10", "N11", "N12", "N13", "N14", "N15"};
Arcs = {<"N1","N2",45,174>, <"N1","N3",45,234>, <"N1","N4",45,209>, <"N1","N5",45,279>, <"N1","N6",45,0>, <"N1","N7",45,0>, <"N1","N8",45,0>, <"N1","N9",45,111>, <"N1","N10",45,206>, <"N1","N11",45,255>, <"N1","N12",45,220>, <"N1","N13",45,201>, <"N1","N14",45,188>, <"N1","N15",45,257>, <"N2","N1",45,174>, <"N2","N3",45,0>, <"N2","N4",45,203>, <"N2","N5",45,0>, <"N2","N6",45,0>, <"N2","N7",45,293>, <"N2","N8",45,118>, <"N2","N9",45,202>, <"N2","N10",45,365>, <"N2","N11",45,401>, <"N2","N12",45,331>, <"N2","N13",45,275>, <"N2","N14",45,354>, <"N2","N15",45,230>, <"N3","N1",45,234>, <"N3","N2",45,0>, <"N3","N4",45,268>, <"N3","N5",45,0>, <"N3","N6",45,194>, <"N3","N7",45,344>, <"N3","N8",45,0>, <"N3","N9",45,233>, <"N3","N10",45,408>, <"N3","N11",45,470>, <"N3","N12",45,353>, <"N3","N13",45,345>, <"N3","N14",45,419>, <"N3","N15",45,208>, <"N4","N1",45,209>, <"N4","N2",45,203>, <"N4","N3",45,268>, <"N4","N5",45,0>, <"N4","N6",45,0>, <"N4","N7",45,313>, <"N4","N8",45,262>, <"N4","N9",45,310>, <"N4","N10",45,401>, <"N4","N11",45,282>, <"N4","N12",45,429>, <"N4","N13",45,109>, <"N4","N14",45,287>, <"N4","N15",45,412>, <"N5","N1",45,279>, <"N5","N2",45,0>, <"N5","N3",45,0>, <"N5","N4",45,0>, <"N5","N6",45,170>, <"N5","N7",45,400>, <"N5","N8",45,277>, <"N5","N9",45,352>, <"N5","N10",45,486>, <"N5","N11",45,415>, <"N5","N12",45,481>, <"N5","N13",45,245>, <"N5","N14",45,407>, <"N5","N15",45,400>, <"N6","N1",45,0>, <"N6","N2",45,0>, <"N6","N3",45,194>, <"N6","N4",45,0>, <"N6","N5",45,170>, <"N6","N7",45,231>, <"N6","N8",45,154>, <"N6","N9",45,203>, <"N6","N10",45,317>, <"N6","N11",45,284>, <"N6","N12",45,327>, <"N6","N13",45,0>, <"N6","N14",45,251>, <"N6","N15",45,306>, <"N7","N1",45,0>, <"N7","N2",45,293>, <"N7","N3",45,344>, <"N7","N4",45,313>, <"N7","N5",45,400>, <"N7","N6",45,231>, <"N7","N8",45,201>, <"N7","N9",45,136>, <"N7","N10",45,0>, <"N7","N11",45,230>, <"N7","N12",45,158>, <"N7","N13",45,266>, <"N7","N14",45,0>, <"N7","N15",45,298>, <"N8","N1",45,0>, <"N8","N2",45,118>, <"N8","N3",45,0>, <"N8","N4",45,262>, <"N8","N5",45,277>, <"N8","N6",45,154>, <"N8","N7",45,201>, <"N8","N9",45,0>, <"N8","N10",45,259>, <"N8","N11",45,368>, <"N8","N12",45,213>, <"N8","N13",45,292>, <"N8","N14",45,298>, <"N8","N15",45,0>, <"N9","N1",45,111>, <"N9","N2",45,202>, <"N9","N3",45,233>, <"N9","N4",45,310>, <"N9","N5",45,352>, <"N9","N6",45,203>, <"N9","N7",45,136>, <"N9","N8",45,0>, <"N9","N10",45,0>, <"N9","N11",45,343>, <"N9","N12",45,0>, <"N9","N13",45,311>, <"N9","N14",45,259>, <"N9","N15",45,0>, <"N10","N1",45,206>, <"N10","N2",45,365>, <"N10","N3",45,408>, <"N10","N4",45,401>, <"N10","N5",45,486>, <"N10","N6",45,317>, <"N10","N7",45,0>, <"N10","N8",45,259>, <"N10","N9",45,0>, <"N10","N11",45,286>, <"N10","N12",45,0>, <"N10","N13",45,351>, <"N10","N14",45,192>, <"N10","N15",45,317>, <"N11","N1",45,255>, <"N11","N2",45,401>, <"N11","N3",45,470>, <"N11","N4",45,282>, <"N11","N5",45,415>, <"N11","N6",45,284>, <"N11","N7",45,230>, <"N11","N8",45,368>, <"N11","N9",45,343>, <"N11","N10",45,286>, <"N11","N12",45,388>, <"N11","N13",45,0>, <"N11","N14",45,0>, <"N11","N15",45,505>, <"N12","N1",45,220>, <"N12","N2",45,331>, <"N12","N3",45,353>, <"N12","N4",45,429>, <"N12","N5",45,481>, <"N12","N6",45,327>, <"N12","N7",45,158>, <"N12","N8",45,213>, <"N12","N9",45,0>, <"N12","N10",45,0>, <"N12","N11",45,388>, <"N12","N13",45,409>, <"N12","N14",45,293>, <"N12","N15",45,213>, <"N13","N1",45,201>, <"N13","N2",45,275>, <"N13","N3",45,345>, <"N13","N4",45,109>, <"N13","N5",45,245>, <"N13","N6",45,0>, <"N13","N7",45,266>, <"N13","N8",45,292>, <"N13","N9",45,311>, <"N13","N10",45,351>, <"N13","N11",45,0>, <"N13","N12",45,409>, <"N13","N14",45,0>, <"N13","N15",45,447>, <"N14","N1",45,188>, <"N14","N2",45,354>, <"N14","N3",45,419>, <"N14","N4",45,287>, <"N14","N5",45,407>, <"N14","N6",45,251>, <"N14","N7",45,0>, <"N14","N8",45,298>, <"N14","N9",45,259>, <"N14","N10",45,192>, <"N14","N11",45,0>, <"N14","N12",45,293>, <"N14","N13",45,0>, <"N14","N15",45,423>, <"N15","N1",45,257>, <"N15","N2",45,230>, <"N15","N3",45,208>, <"N15","N4",45,412>, <"N15","N5",45,400>, <"N15","N6",45,306>, <"N15","N7",45,298>, <"N15","N8",45,0>, <"N15","N9",45,0>, <"N15","N10",45,317>, <"N15","N11",45,505>, <"N15","N12",45,213>, <"N15","N13",45,447>, <"N15","N14",45,423>};
Demands = {<"N1","N2",2,0>, <"N1","N3",4,0>, <"N1","N4",6,0>, <"N1","N5",8,0>, <"N1","N6",10,0>, <"N1","N7",12,0>, <"N1","N8",14,0>, <"N1","N9",16,0>, <"N1","N10",18,0>, <"N1","N11",20,0>, <"N1","N12",22,0>, <"N1","N13",24,0>, <"N1","N14",26,0>, <"N1","N15",28,0>, <"N2","N1",2,0>, <"N2","N3",2,0>, <"N2","N4",4,0>, <"N2","N5",6,0>, <"N2","N6",8,0>, <"N2","N7",10,0>, <"N2","N8",12,0>, <"N2","N9",14,0>, <"N2","N10",16,0>, <"N2","N11",18,0>, <"N2","N12",20,0>, <"N2","N13",22,0>, <"N2","N14",24,0>, <"N2","N15",26,0>, <"N3","N1",4,0>, <"N3","N2",2,0>, <"N3","N4",2,0>, <"N3","N5",4,0>, <"N3","N6",6,0>, <"N3","N7",8,0>, <"N3","N8",10,0>, <"N3","N9",12,0>, <"N3","N10",14,0>, <"N3","N11",16,0>, <"N3","N12",18,0>, <"N3","N13",20,0>, <"N3","N14",22,0>, <"N3","N15",24,0>, <"N4","N1",6,0>, <"N4","N2",4,0>, <"N4","N3",2,0>, <"N4","N5",2,0>, <"N4","N6",4,0>, <"N4","N7",6,0>, <"N4","N8",8,0>, <"N4","N9",10,0>, <"N4","N10",12,0>, <"N4","N11",14,0>, <"N4","N12",16,0>, <"N4","N13",18,0>, <"N4","N14",20,0>, <"N4","N15",22,0>, <"N5","N1",8,0>, <"N5","N2",6,0>, <"N5","N3",4,0>, <"N5","N4",2,0>, <"N5","N6",2,0>, <"N5","N7",4,0>, <"N5","N8",6,0>, <"N5","N9",8,0>, <"N5","N10",10,0>, <"N5","N11",12,0>, <"N5","N12",14,0>, <"N5","N13",16,0>, <"N5","N14",18,0>, <"N5","N15",20,0>, <"N6","N1",10,0>, <"N6","N2",8,0>, <"N6","N3",6,0>, <"N6","N4",4,0>, <"N6","N5",2,0>, <"N6","N7",2,0>, <"N6","N8",4,0>, <"N6","N9",6,0>, <"N6","N10",8,0>, <"N6","N11",10,0>, <"N6","N12",12,0>, <"N6","N13",14,0>, <"N6","N14",16,0>, <"N6","N15",18,0>, <"N7","N1",12,0>, <"N7","N2",10,0>, <"N7","N3",8,0>, <"N7","N4",6,0>, <"N7","N5",4,0>, <"N7","N6",2,0>, <"N7","N8",2,0>, <"N7","N9",4,0>, <"N7","N10",6,0>, <"N7","N11",8,0>, <"N7","N12",10,1>, <"N7","N13",12,0>, <"N7","N14",14,1>, <"N7","N15",16,0>, <"N8","N1",14,0>, <"N8","N2",12,0>, <"N8","N3",10,0>, <"N8","N4",8,0>, <"N8","N5",6,0>, <"N8","N6",4,0>, <"N8","N7",2,0>, <"N8","N9",2,0>, <"N8","N10",4,0>, <"N8","N11",6,0>, <"N8","N12",8,0>, <"N8","N13",10,0>, <"N8","N14",12,0>, <"N8","N15",14,0>, <"N9","N1",16,0>, <"N9","N2",14,0>, <"N9","N3",12,0>, <"N9","N4",10,0>, <"N9","N5",8,0>, <"N9","N6",6,0>, <"N9","N7",4,0>, <"N9","N8",2,0>, <"N9","N10",2,0>, <"N9","N11",4,0>, <"N9","N12",6,0>, <"N9","N13",8,0>, <"N9","N14",10,0>, <"N9","N15",12,0>, <"N10","N1",18,0>, <"N10","N2",16,0>, <"N10","N3",14,0>, <"N10","N4",12,0>, <"N10","N5",10,0>, <"N10","N6",8,0>, <"N10","N7",6,0>, <"N10","N8",4,0>, <"N10","N9",2,0>, <"N10","N11",2,0>, <"N10","N12",4,0>, <"N10","N13",6,0>, <"N10","N14",8,0>, <"N10","N15",10,0>, <"N11","N1",20,0>, <"N11","N2",18,0>, <"N11","N3",16,0>, <"N11","N4",14,0>, <"N11","N5",12,0>, <"N11","N6",10,0>, <"N11","N7",8,0>, <"N11","N8",6,0>, <"N11","N9",4,0>, <"N11","N10",2,0>, <"N11","N12",2,0>, <"N11","N13",4,0>, <"N11","N14",6,0>, <"N11","N15",8,0>, <"N12","N1",22,0>, <"N12","N2",20,0>, <"N12","N3",18,0>, <"N12","N4",16,0>, <"N12","N5",14,0>, <"N12","N6",12,0>, <"N12","N7",10,0>, <"N12","N8",8,0>, <"N12","N9",6,0>, <"N12","N10",4,0>, <"N12","N11",2,0>, <"N12","N13",2,0>, <"N12","N14",4,0>, <"N12","N15",6,0>, <"N13","N1",24,0>, <"N13","N2",22,0>, <"N13","N3",20,0>, <"N13","N4",18,0>, <"N13","N5",16,0>, <"N13","N6",14,0>, <"N13","N7",12,0>, <"N13","N8",10,0>, <"N13","N9",8,0>, <"N13","N10",6,0>, <"N13","N11",4,0>, <"N13","N12",2,0>, <"N13","N14",2,0>, <"N13","N15",4,0>, <"N14","N1",26,0>, <"N14","N2",24,0>, <"N14","N3",22,0>, <"N14","N4",20,0>, <"N14","N5",18,0>, <"N14","N6",16,0>, <"N14","N7",14,0>, <"N14","N8",12,0>, <"N14","N9",10,0>, <"N14","N10",8,0>, <"N14","N11",6,0>, <"N14","N12",4,0>, <"N14","N13",2,0>, <"N14","N15",2,0>, <"N15","N1",28,0>, <"N15","N2",26,0>, <"N15","N3",24,0>, <"N15","N4",22,0>, <"N15","N5",20,0>, <"N15","N6",18,0>, <"N15","N7",16,0>, <"N15","N8",14,0>, <"N15","N9",12,0>, <"N15","N10",10,0>, <"N15","N11",8,0>, <"N15","N12",6,0>, <"N15","N13",4,0>, <"N15","N14",2,1>, <"N7","N12",10,1>, <"N7","N12",10,1>, <"N15","N14",2,1>, <"N7","N14",14,1>};
